c strEdges: 189  randomEdges: 441 
c degrees:  2  3 
c girth: 10 max: 8.032766  
c Hgirth mixed MAXCUT instance
c generated from an undirected graph
c to solve unweighted MaxCut
p cnf 140 1260
52 111 0
-52 -111 0
52 45 0
-52 -45 0
52 43 0
-52 -43 0
93 108 0
-93 -108 0
93 68 0
-93 -68 0
93 20 0
-93 -20 0
90 132 0
-90 -132 0
90 121 0
-90 -121 0
90 17 0
-90 -17 0
28 121 0
-28 -121 0
28 9 0
-28 -9 0
28 58 0
-28 -58 0
89 46 0
-89 -46 0
89 68 0
-89 -68 0
89 94 0
-89 -94 0
11 97 0
-11 -97 0
11 81 0
-11 -81 0
39 131 0
-39 -131 0
39 14 0
-39 -14 0
39 61 0
-39 -61 0
10 31 0
-10 -31 0
10 131 0
-10 -131 0
74 17 0
-74 -17 0
74 117 0
-74 -117 0
74 131 0
-74 -131 0
109 98 0
-109 -98 0
109 140 0
-109 -140 0
109 14 0
-109 -14 0
95 54 0
-95 -54 0
95 19 0
-95 -19 0
95 59 0
-95 -59 0
116 43 0
-116 -43 0
116 102 0
-116 -102 0
63 8 0
-63 -8 0
63 53 0
-63 -53 0
63 9 0
-63 -9 0
32 92 0
-32 -92 0
32 132 0
-32 -132 0
32 30 0
-32 -30 0
23 106 0
-23 -106 0
23 34 0
-23 -34 0
62 81 0
-62 -81 0
62 92 0
-62 -92 0
138 140 0
-138 -140 0
138 130 0
-138 -130 0
138 99 0
-138 -99 0
118 114 0
-118 -114 0
118 19 0
-118 -19 0
118 91 0
-118 -91 0
78 34 0
-78 -34 0
78 121 0
-78 -121 0
49 42 0
-49 -42 0
49 72 0
-49 -72 0
49 20 0
-49 -20 0
82 53 0
-82 -53 0
82 71 0
-82 -71 0
82 91 0
-82 -91 0
65 44 0
-65 -44 0
65 31 0
-65 -31 0
65 97 0
-65 -97 0
119 57 0
-119 -57 0
119 61 0
-119 -61 0
119 128 0
-119 -128 0
113 120 0
-113 -120 0
113 97 0
-113 -97 0
113 106 0
-113 -106 0
16 68 0
-16 -68 0
16 105 0
-16 -105 0
16 53 0
-16 -53 0
75 61 0
-75 -61 0
75 8 0
-75 -8 0
86 20 0
-86 -20 0
86 3 0
-86 -3 0
86 136 0
-86 -136 0
27 19 0
-27 -19 0
27 99 0
-27 -99 0
27 42 0
-27 -42 0
18 30 0
-18 -30 0
18 60 0
-18 -60 0
51 2 0
-51 -2 0
51 44 0
-51 -44 0
13 71 0
-13 -71 0
13 135 0
-13 -135 0
13 98 0
-13 -98 0
29 94 0
-29 -94 0
29 21 0
-29 -21 0
29 57 0
-29 -57 0
85 6 0
-85 -6 0
85 77 0
-85 -77 0
85 36 0
-85 -36 0
137 112 0
-137 -112 0
137 60 0
-137 -60 0
137 43 0
-137 -43 0
40 58 0
-40 -58 0
40 129 0
-40 -129 0
40 36 0
-40 -36 0
124 72 0
-124 -72 0
124 83 0
-124 -83 0
7 47 0
-7 -47 0
7 104 0
-7 -104 0
1 129 0
-1 -129 0
1 100 0
-1 -100 0
96 100 0
-96 -100 0
96 3 0
-96 -3 0
48 59 0
-48 -59 0
48 58 0
-48 -58 0
48 108 0
-48 -108 0
103 33 0
-103 -33 0
103 50 0
-103 -50 0
103 135 0
-103 -135 0
115 83 0
-115 -83 0
115 46 0
-115 -46 0
133 9 0
-133 -9 0
133 130 0
-133 -130 0
67 117 0
-67 -117 0
67 42 0
-67 -42 0
67 47 0
-67 -47 0
87 136 0
-87 -136 0
87 81 0
-87 -81 0
87 128 0
-87 -128 0
64 70 0
-64 -70 0
64 112 0
-64 -112 0
64 8 0
-64 -8 0
37 84 0
-37 -84 0
37 107 0
-37 -107 0
26 56 0
-26 -56 0
26 88 0
-26 -88 0
26 34 0
-26 -34 0
79 5 0
-79 -5 0
79 70 0
-79 -70 0
79 77 0
-79 -77 0
73 21 0
-73 -21 0
73 72 0
-73 -72 0
76 130 0
-76 -130 0
76 5 0
-76 -5 0
4 99 0
-4 -99 0
4 44 0
-4 -44 0
4 84 0
-4 -84 0
123 60 0
-123 -60 0
123 2 0
-123 -2 0
123 83 0
-123 -83 0
134 105 0
-134 -105 0
134 106 0
-134 -106 0
134 102 0
-134 -102 0
125 110 0
-125 -110 0
125 120 0
-125 -120 0
125 94 0
-125 -94 0
55 128 0
-55 -128 0
55 59 0
-55 -59 0
55 33 0
-55 -33 0
101 107 0
-101 -107 0
101 50 0
-101 -50 0
101 88 0
-101 -88 0
38 45 0
-38 -45 0
38 54 0
-38 -54 0
38 110 0
-38 -110 0
80 122 0
-80 -122 0
80 84 0
-80 -84 0
80 46 0
-80 -46 0
139 66 0
-139 -66 0
139 98 0
-139 -98 0
139 111 0
-139 -111 0
25 88 0
-25 -88 0
25 5 0
-25 -5 0
25 21 0
-25 -21 0
41 36 0
-41 -36 0
41 66 0
-41 -66 0
41 47 0
-41 -47 0
35 91 0
-35 -91 0
35 6 0
-35 -6 0
126 3 0
-126 -3 0
126 56 0
-126 -56 0
126 45 0
-126 -45 0
22 50 0
-22 -50 0
22 30 0
-22 -30 0
22 104 0
-22 -104 0
12 104 0
-12 -104 0
12 105 0
-12 -105 0
24 77 0
-24 -77 0
24 122 0
-24 -122 0
24 136 0
-24 -136 0
127 102 0
-127 -102 0
127 129 0
-127 -129 0
15 135 0
-15 -135 0
15 31 0
-15 -31 0
15 100 0
-15 -100 0
69 14 0
-69 -14 0
69 114 0
-69 -114 0
69 107 0
-69 -107 0
114 5 0
-114 -5 0
133 44 0
-133 -44 0
38 99 0
-38 -99 0
35 114 0
-35 -114 0
137 107 0
-137 -107 0
65 101 0
-65 -101 0
11 123 0
-11 -123 0
65 24 0
-65 -24 0
131 54 0
-131 -54 0
23 110 0
-23 -110 0
87 102 0
-87 -102 0
94 77 0
-94 -77 0
7 60 0
-7 -60 0
66 3 0
-66 -3 0
32 87 0
-32 -87 0
118 136 0
-118 -136 0
78 111 0
-78 -111 0
29 72 0
-29 -72 0
63 124 0
-63 -124 0
39 103 0
-39 -103 0
27 130 0
-27 -130 0
91 102 0
-91 -102 0
15 45 0
-15 -45 0
123 112 0
-123 -112 0
131 61 0
-131 -61 0
90 130 0
-90 -130 0
64 17 0
-64 -17 0
62 55 0
-62 -55 0
134 59 0
-134 -59 0
56 5 0
-56 -5 0
27 122 0
-27 -122 0
74 87 0
-74 -87 0
119 59 0
-119 -59 0
100 14 0
-100 -14 0
115 45 0
-115 -45 0
78 64 0
-78 -64 0
111 97 0
-111 -97 0
37 125 0
-37 -125 0
124 22 0
-124 -22 0
106 81 0
-106 -81 0
127 15 0
-127 -15 0
118 121 0
-118 -121 0
11 2 0
-11 -2 0
82 73 0
-82 -73 0
9 3 0
-9 -3 0
28 126 0
-28 -126 0
115 54 0
-115 -54 0
129 36 0
-129 -36 0
62 128 0
-62 -128 0
109 71 0
-109 -71 0
22 107 0
-22 -107 0
58 83 0
-58 -83 0
90 40 0
-90 -40 0
78 106 0
-78 -106 0
94 50 0
-94 -50 0
31 36 0
-31 -36 0
72 102 0
-72 -102 0
93 64 0
-93 -64 0
103 110 0
-103 -110 0
25 126 0
-25 -126 0
93 3 0
-93 -3 0
69 44 0
-69 -44 0
138 103 0
-138 -103 0
51 73 0
-51 -73 0
57 72 0
-57 -72 0
10 139 0
-10 -139 0
43 68 0
-43 -68 0
92 3 0
-92 -3 0
108 17 0
-108 -17 0
64 91 0
-64 -91 0
82 106 0
-82 -106 0
62 83 0
-62 -83 0
109 1 0
-109 -1 0
76 14 0
-76 -14 0
8 57 0
-8 -57 0
49 84 0
-49 -84 0
41 98 0
-41 -98 0
125 91 0
-125 -91 0
133 136 0
-133 -136 0
123 42 0
-123 -42 0
129 56 0
-129 -56 0
122 77 0
-122 -77 0
33 122 0
-33 -122 0
73 81 0
-73 -81 0
32 34 0
-32 -34 0
133 66 0
-133 -66 0
10 35 0
-10 -35 0
94 84 0
-94 -84 0
85 139 0
-85 -139 0
93 115 0
-93 -115 0
13 101 0
-13 -101 0
48 79 0
-48 -79 0
23 125 0
-23 -125 0
55 97 0
-55 -97 0
86 50 0
-86 -50 0
4 12 0
-4 -12 0
64 35 0
-64 -35 0
81 58 0
-81 -58 0
82 29 0
-82 -29 0
4 97 0
-4 -97 0
54 68 0
-54 -68 0
1 20 0
-1 -20 0
41 20 0
-41 -20 0
51 13 0
-51 -13 0
137 76 0
-137 -76 0
96 70 0
-96 -70 0
61 102 0
-61 -102 0
96 55 0
-96 -55 0
26 73 0
-26 -73 0
87 61 0
-87 -61 0
118 130 0
-118 -130 0
90 11 0
-90 -11 0
11 85 0
-11 -85 0
138 114 0
-138 -114 0
75 124 0
-75 -124 0
65 108 0
-65 -108 0
128 50 0
-128 -50 0
92 110 0
-92 -110 0
10 8 0
-10 -8 0
52 91 0
-52 -91 0
139 3 0
-139 -3 0
35 3 0
-35 -3 0
138 12 0
-138 -12 0
10 121 0
-10 -121 0
90 14 0
-90 -14 0
24 140 0
-24 -140 0
16 106 0
-16 -106 0
81 136 0
-81 -136 0
92 129 0
-92 -129 0
89 63 0
-89 -63 0
2 88 0
-2 -88 0
94 83 0
-94 -83 0
28 68 0
-28 -68 0
12 69 0
-12 -69 0
121 17 0
-121 -17 0
131 5 0
-131 -5 0
2 84 0
-2 -84 0
111 70 0
-111 -70 0
20 130 0
-20 -130 0
35 117 0
-35 -117 0
133 80 0
-133 -80 0
25 83 0
-25 -83 0
17 112 0
-17 -112 0
49 113 0
-49 -113 0
126 6 0
-126 -6 0
83 60 0
-83 -60 0
121 120 0
-121 -120 0
131 53 0
-131 -53 0
46 106 0
-46 -106 0
101 60 0
-101 -60 0
101 66 0
-101 -66 0
1 101 0
-1 -101 0
23 82 0
-23 -82 0
73 50 0
-73 -50 0
15 20 0
-15 -20 0
138 69 0
-138 -69 0
32 124 0
-32 -124 0
12 130 0
-12 -130 0
116 25 0
-116 -25 0
1 45 0
-1 -45 0
76 131 0
-76 -131 0
118 51 0
-118 -51 0
125 20 0
-125 -20 0
18 111 0
-18 -111 0
19 14 0
-19 -14 0
65 5 0
-65 -5 0
101 58 0
-101 -58 0
108 19 0
-108 -19 0
42 72 0
-42 -72 0
87 8 0
-87 -8 0
115 136 0
-115 -136 0
103 9 0
-103 -9 0
2 3 0
-2 -3 0
74 137 0
-74 -137 0
101 57 0
-101 -57 0
98 2 0
-98 -2 0
28 109 0
-28 -109 0
83 110 0
-83 -110 0
25 104 0
-25 -104 0
136 99 0
-136 -99 0
134 57 0
-134 -57 0
80 81 0
-80 -81 0
87 121 0
-87 -121 0
63 22 0
-63 -22 0
123 104 0
-123 -104 0
119 24 0
-119 -24 0
63 45 0
-63 -45 0
109 25 0
-109 -25 0
16 4 0
-16 -4 0
131 59 0
-131 -59 0
17 50 0
-17 -50 0
126 77 0
-126 -77 0
31 112 0
-31 -112 0
79 8 0
-79 -8 0
62 120 0
-62 -120 0
49 48 0
-49 -48 0
113 45 0
-113 -45 0
92 19 0
-92 -19 0
23 40 0
-23 -40 0
103 17 0
-103 -17 0
4 125 0
-4 -125 0
112 59 0
-112 -59 0
62 37 0
-62 -37 0
25 61 0
-25 -61 0
28 97 0
-28 -97 0
63 119 0
-63 -119 0
9 130 0
-9 -130 0
86 18 0
-86 -18 0
75 12 0
-75 -12 0
94 117 0
-94 -117 0
82 26 0
-82 -26 0
90 18 0
-90 -18 0
115 71 0
-115 -71 0
137 31 0
-137 -31 0
27 36 0
-27 -36 0
82 111 0
-82 -111 0
65 4 0
-65 -4 0
52 62 0
-52 -62 0
63 58 0
-63 -58 0
96 68 0
-96 -68 0
63 54 0
-63 -54 0
18 73 0
-18 -73 0
1 81 0
-1 -81 0
31 122 0
-31 -122 0
17 57 0
-17 -57 0
52 30 0
-52 -30 0
76 80 0
-76 -80 0
115 94 0
-115 -94 0
72 110 0
-72 -110 0
10 99 0
-10 -99 0
62 71 0
-62 -71 0
1 80 0
-1 -80 0
113 57 0
-113 -57 0
7 8 0
-7 -8 0
8 130 0
-8 -130 0
16 64 0
-16 -64 0
105 88 0
-105 -88 0
34 6 0
-34 -6 0
78 35 0
-78 -35 0
1 87 0
-1 -87 0
28 80 0
-28 -80 0
101 19 0
-101 -19 0
8 135 0
-8 -135 0
25 41 0
-25 -41 0
32 101 0
-32 -101 0
12 94 0
-12 -94 0
40 135 0
-40 -135 0
119 7 0
-119 -7 0
39 35 0
-39 -35 0
123 3 0
-123 -3 0
115 19 0
-115 -19 0
97 136 0
-97 -136 0
11 37 0
-11 -37 0
29 127 0
-29 -127 0
101 132 0
-101 -132 0
96 43 0
-96 -43 0
1 115 0
-1 -115 0
139 84 0
-139 -84 0
19 2 0
-19 -2 0
63 49 0
-63 -49 0
106 122 0
-106 -122 0
32 61 0
-32 -61 0
133 8 0
-133 -8 0
29 35 0
-29 -35 0
13 41 0
-13 -41 0
125 77 0
-125 -77 0
125 3 0
-125 -3 0
82 136 0
-82 -136 0
7 139 0
-7 -139 0
62 34 0
-62 -34 0
73 107 0
-73 -107 0
74 43 0
-74 -43 0
27 37 0
-27 -37 0
119 75 0
-119 -75 0
95 117 0
-95 -117 0
53 122 0
-53 -122 0
48 84 0
-48 -84 0
32 91 0
-32 -91 0
100 130 0
-100 -130 0
69 99 0
-69 -99 0
47 77 0
-47 -77 0
101 102 0
-101 -102 0
139 36 0
-139 -36 0
72 33 0
-72 -33 0
125 107 0
-125 -107 0
11 3 0
-11 -3 0
82 61 0
-82 -61 0
19 33 0
-19 -33 0
132 3 0
-132 -3 0
41 42 0
-41 -42 0
85 2 0
-85 -2 0
109 18 0
-109 -18 0
94 3 0
-94 -3 0
131 47 0
-131 -47 0
65 37 0
-65 -37 0
38 3 0
-38 -3 0
118 123 0
-118 -123 0
111 130 0
-111 -130 0
137 57 0
-137 -57 0
54 14 0
-54 -14 0
16 22 0
-16 -22 0
98 70 0
-98 -70 0
69 34 0
-69 -34 0
58 91 0
-58 -91 0
85 61 0
-85 -61 0
39 140 0
-39 -140 0
18 124 0
-18 -124 0
92 120 0
-92 -120 0
49 47 0
-49 -47 0
42 58 0
-42 -58 0
87 60 0
-87 -60 0
127 136 0
-127 -136 0
57 120 0
-57 -120 0
85 133 0
-85 -133 0
127 8 0
-127 -8 0
99 14 0
-99 -14 0
55 20 0
-55 -20 0
75 127 0
-75 -127 0
37 102 0
-37 -102 0
83 117 0
-83 -117 0
63 2 0
-63 -2 0
118 115 0
-118 -115 0
20 19 0
-20 -19 0
63 79 0
-63 -79 0
86 132 0
-86 -132 0
118 87 0
-118 -87 0
75 48 0
-75 -48 0
63 40 0
-63 -40 0
137 4 0
-137 -4 0
133 106 0
-133 -106 0
72 66 0
-72 -66 0
96 133 0
-96 -133 0
65 84 0
-65 -84 0
127 14 0
-127 -14 0
61 88 0
-61 -88 0
52 109 0
-52 -109 0
115 26 0
-115 -26 0
131 58 0
-131 -58 0
80 131 0
-80 -131 0
47 36 0
-47 -36 0
15 97 0
-15 -97 0
120 83 0
-120 -83 0
10 45 0
-10 -45 0
80 120 0
-80 -120 0
95 75 0
-95 -75 0
11 19 0
-11 -19 0
76 19 0
-76 -19 0
120 94 0
-120 -94 0
38 120 0
-38 -120 0
115 4 0
-115 -4 0
54 5 0
-54 -5 0
42 59 0
-42 -59 0
111 36 0
-111 -36 0
93 31 0
-93 -31 0
38 130 0
-38 -130 0
85 30 0
-85 -30 0
127 108 0
-127 -108 0
13 102 0
-13 -102 0
28 71 0
-28 -71 0
17 6 0
-17 -6 0
75 68 0
-75 -68 0
95 92 0
-95 -92 0
97 21 0
-97 -21 0
39 43 0
-39 -43 0
126 57 0
-126 -57 0
49 87 0
-49 -87 0
11 39 0
-11 -39 0
29 6 0
-29 -6 0
137 22 0
-137 -22 0
39 114 0
-39 -114 0
73 15 0
-73 -15 0
16 99 0
-16 -99 0
51 34 0
-51 -34 0
42 83 0
-42 -83 0
62 108 0
-62 -108 0
116 106 0
-116 -106 0
51 29 0
-51 -29 0
75 120 0
-75 -120 0
90 27 0
-90 -27 0
75 19 0
-75 -19 0
76 139 0
-76 -139 0
96 101 0
-96 -101 0
75 137 0
-75 -137 0
44 57 0
-44 -57 0
100 21 0
-100 -21 0
103 94 0
-103 -94 0
78 114 0
-78 -114 0
25 129 0
-25 -129 0
105 135 0
-105 -135 0
115 55 0
-115 -55 0
74 56 0
-74 -56 0
90 119 0
-90 -119 0
27 97 0
-27 -97 0
139 14 0
-139 -14 0
137 21 0
-137 -21 0
12 45 0
-12 -45 0
26 126 0
-26 -126 0
63 62 0
-63 -62 0
126 31 0
-126 -31 0
41 100 0
-41 -100 0
90 34 0
-90 -34 0
25 6 0
-25 -6 0
44 50 0
-44 -50 0
65 40 0
-65 -40 0
82 45 0
-82 -45 0
10 129 0
-10 -129 0
95 101 0
-95 -101 0
35 81 0
-35 -81 0
34 130 0
-34 -130 0
31 120 0
-31 -120 0
81 128 0
-81 -128 0
119 115 0
-119 -115 0
10 15 0
-10 -15 0
23 113 0
-23 -113 0
19 100 0
-19 -100 0
134 61 0
-134 -61 0
4 2 0
-4 -2 0
33 110 0
-33 -110 0
10 130 0
-10 -130 0
137 48 0
-137 -48 0
109 46 0
-109 -46 0
124 122 0
-124 -122 0
103 19 0
-103 -19 0
18 139 0
-18 -139 0
63 133 0
-63 -133 0
81 102 0
-81 -102 0
51 17 0
-51 -17 0
90 109 0
-90 -109 0
59 36 0
-59 -36 0
138 87 0
-138 -87 0
7 22 0
-7 -22 0
114 99 0
-114 -99 0
27 64 0
-27 -64 0
138 86 0
-138 -86 0
13 123 0
-13 -123 0
137 129 0
-137 -129 0
116 4 0
-116 -4 0
3 14 0
-3 -14 0
98 50 0
-98 -50 0
103 73 0
-103 -73 0
4 110 0
-4 -110 0
